\ENCODING=ISO-8859-1
\Problem name: IloCplex

Minimize
 obj1: 47154 X_(V0)(0)(1)#0 + 2883406 X_(V0)(0)(2)#1 + 195404 X_(V0)(0)(3)#2
       + 58352 X_(V0)(0)(4)#3 + 314884 X_(V0)(0)(5)#4 + 1693994 X_(V0)(0)(6)#5
       + 641946 X_(V0)(0)(7)#6 + 47154 X_(V1)(0)(1)#7 + 2883406 X_(V1)(0)(2)#8
       + 195404 X_(V1)(0)(3)#9 + 58352 X_(V1)(0)(4)#10 + 314884 X_(V1)(0)(5)#11
       + 1693994 X_(V1)(0)(6)#12 + 641946 X_(V1)(0)(7)#13
       + 47158 X_(V0)(1)(0)#14 + 2832554 X_(V0)(2)(0)#15
       + 192942 X_(V0)(3)(0)#16 + 57234 X_(V0)(4)(0)#17
       + 314744 X_(V0)(5)(0)#18 + 1690298 X_(V0)(6)(0)#19
       + 641766 X_(V0)(7)(0)#20 + 47158 X_(V1)(1)(0)#21
       + 2832554 X_(V1)(2)(0)#22 + 192942 X_(V1)(3)(0)#23
       + 57234 X_(V1)(4)(0)#24 + 314744 X_(V1)(5)(0)#25
       + 1690298 X_(V1)(6)(0)#26 + 641766 X_(V1)(7)(0)#27
       + 2925798 X_(V0)(1)(2)#30 + 2925798 X_(V1)(1)(2)#31
       + 237798 X_(V0)(1)(3)#32 + 237798 X_(V1)(1)(3)#33
       + 100744 X_(V0)(1)(4)#34 + 100744 X_(V1)(1)(4)#35
       + 280118 X_(V0)(1)(5)#36 + 280118 X_(V1)(1)(5)#37
       + 1659226 X_(V0)(1)(6)#38 + 1659226 X_(V1)(1)(6)#39
       + 607180 X_(V0)(1)(7)#40 + 607180 X_(V1)(1)(7)#41
       + 2875966 X_(V0)(2)(1)#42 + 2875966 X_(V1)(2)(1)#43
       + 2720206 X_(V0)(2)(3)#46 + 2720206 X_(V1)(2)(3)#47
       + 2843342 X_(V0)(2)(4)#48 + 2843342 X_(V1)(2)(4)#49
       + 2746712 X_(V0)(2)(5)#50 + 2746712 X_(V1)(2)(5)#51
       + 1984494 X_(V0)(2)(6)#52 + 1984494 X_(V1)(2)(6)#53
       + 2641752 X_(V0)(2)(7)#54 + 2641752 X_(V1)(2)(7)#55
       + 236354 X_(V0)(3)(1)#56 + 236354 X_(V1)(3)(1)#57
       + 2732874 X_(V0)(3)(2)#58 + 2732874 X_(V1)(3)(2)#59
       + 143358 X_(V0)(3)(4)#62 + 143358 X_(V1)(3)(4)#63
       + 197066 X_(V0)(3)(5)#64 + 197066 X_(V1)(3)(5)#65
       + 1576176 X_(V0)(3)(6)#66 + 1576176 X_(V1)(3)(6)#67
       + 524130 X_(V0)(3)(7)#68 + 524130 X_(V1)(3)(7)#69
       + 100646 X_(V0)(4)(1)#70 + 100646 X_(V1)(4)(1)#71
       + 2892256 X_(V0)(4)(2)#72 + 2892256 X_(V1)(4)(2)#73
       + 144610 X_(V0)(4)(3)#74 + 144610 X_(V1)(4)(3)#75
       + 337016 X_(V0)(4)(5)#78 + 337016 X_(V1)(4)(5)#79
       + 1716124 X_(V0)(4)(6)#80 + 1716124 X_(V1)(4)(6)#81
       + 664078 X_(V0)(4)(7)#82 + 664078 X_(V1)(4)(7)#83
       + 281060 X_(V0)(5)(1)#84 + 281060 X_(V1)(5)(1)#85
       + 2815464 X_(V0)(5)(2)#86 + 2815464 X_(V1)(5)(2)#87
       + 205950 X_(V0)(5)(3)#88 + 205950 X_(V1)(5)(3)#89
       + 348622 X_(V0)(5)(4)#90 + 348622 X_(V1)(5)(4)#91
       + 1358566 X_(V0)(5)(6)#94 + 1358566 X_(V1)(5)(6)#95
       + 344324 X_(V0)(5)(7)#96 + 344324 X_(V1)(5)(7)#97
       + 1656616 X_(V0)(6)(1)#98 + 1656616 X_(V1)(6)(1)#99
       + 2144500 X_(V0)(6)(2)#100 + 2144500 X_(V1)(6)(2)#101
       + 1581504 X_(V0)(6)(3)#102 + 1581504 X_(V1)(6)(3)#103
       + 1724178 X_(V0)(6)(4)#104 + 1724178 X_(V1)(6)(4)#105
       + 1360654 X_(V0)(6)(5)#106 + 1360654 X_(V1)(6)(5)#107
       + 1087008 X_(V0)(6)(7)#110 + 1087008 X_(V1)(6)(7)#111
       + 608082 X_(V0)(7)(1)#112 + 608082 X_(V1)(7)(1)#113
       + 2624028 X_(V0)(7)(2)#114 + 2624028 X_(V1)(7)(2)#115
       + 532972 X_(V0)(7)(3)#116 + 532972 X_(V1)(7)(3)#117
       + 675644 X_(V0)(7)(4)#118 + 675644 X_(V1)(7)(4)#119
       + 343452 X_(V0)(7)(5)#120 + 343452 X_(V1)(7)(5)#121
       + 1073522 X_(V0)(7)(6)#122 + 1073522 X_(V1)(7)(6)#123
Subject To
 Todos_partem_da_Entrada_#0:     X_(V0)(0)(1)#0 + X_(V0)(0)(2)#1
                                 + X_(V0)(0)(3)#2 + X_(V0)(0)(4)#3
                                 + X_(V0)(0)(5)#4 + X_(V0)(0)(6)#5
                                 + X_(V0)(0)(7)#6 + X_(V1)(0)(1)#7
                                 + X_(V1)(0)(2)#8 + X_(V1)(0)(3)#9
                                 + X_(V1)(0)(4)#10 + X_(V1)(0)(5)#11
                                 + X_(V1)(0)(6)#12 + X_(V1)(0)(7)#13  = 2
 Todos_voltam_a_Entrada#1:       X_(V0)(1)(0)#14 + X_(V0)(2)(0)#15
                                 + X_(V0)(3)(0)#16 + X_(V0)(4)(0)#17
                                 + X_(V0)(5)(0)#18 + X_(V0)(6)(0)#19
                                 + X_(V0)(7)(0)#20 + X_(V1)(1)(0)#21
                                 + X_(V1)(2)(0)#22 + X_(V1)(3)(0)#23
                                 + X_(V1)(4)(0)#24 + X_(V1)(5)(0)#25
                                 + X_(V1)(6)(0)#26 + X_(V1)(7)(0)#27  = 2
 Saidas_node1#2:                 X_(V0)(1)(0)#14 + X_(V1)(1)(0)#21
                                 + X_(V0)(1)(1)#28 + X_(V1)(1)(1)#29
                                 + X_(V0)(1)(2)#30 + X_(V1)(1)(2)#31
                                 + X_(V0)(1)(3)#32 + X_(V1)(1)(3)#33
                                 + X_(V0)(1)(4)#34 + X_(V1)(1)(4)#35
                                 + X_(V0)(1)(5)#36 + X_(V1)(1)(5)#37
                                 + X_(V0)(1)(6)#38 + X_(V1)(1)(6)#39
                                 + X_(V0)(1)(7)#40 + X_(V1)(1)(7)#41  = 1
 Saidas_node2#3:                 X_(V0)(2)(0)#15 + X_(V1)(2)(0)#22
                                 + X_(V0)(2)(1)#42 + X_(V1)(2)(1)#43
                                 + X_(V0)(2)(2)#44 + X_(V1)(2)(2)#45
                                 + X_(V0)(2)(3)#46 + X_(V1)(2)(3)#47
                                 + X_(V0)(2)(4)#48 + X_(V1)(2)(4)#49
                                 + X_(V0)(2)(5)#50 + X_(V1)(2)(5)#51
                                 + X_(V0)(2)(6)#52 + X_(V1)(2)(6)#53
                                 + X_(V0)(2)(7)#54 + X_(V1)(2)(7)#55  = 1
 Saidas_node3#4:                 X_(V0)(3)(0)#16 + X_(V1)(3)(0)#23
                                 + X_(V0)(3)(1)#56 + X_(V1)(3)(1)#57
                                 + X_(V0)(3)(2)#58 + X_(V1)(3)(2)#59
                                 + X_(V0)(3)(3)#60 + X_(V1)(3)(3)#61
                                 + X_(V0)(3)(4)#62 + X_(V1)(3)(4)#63
                                 + X_(V0)(3)(5)#64 + X_(V1)(3)(5)#65
                                 + X_(V0)(3)(6)#66 + X_(V1)(3)(6)#67
                                 + X_(V0)(3)(7)#68 + X_(V1)(3)(7)#69  = 1
 Saidas_node4#5:                 X_(V0)(4)(0)#17 + X_(V1)(4)(0)#24
                                 + X_(V0)(4)(1)#70 + X_(V1)(4)(1)#71
                                 + X_(V0)(4)(2)#72 + X_(V1)(4)(2)#73
                                 + X_(V0)(4)(3)#74 + X_(V1)(4)(3)#75
                                 + X_(V0)(4)(4)#76 + X_(V1)(4)(4)#77
                                 + X_(V0)(4)(5)#78 + X_(V1)(4)(5)#79
                                 + X_(V0)(4)(6)#80 + X_(V1)(4)(6)#81
                                 + X_(V0)(4)(7)#82 + X_(V1)(4)(7)#83  = 1
 Saidas_node5#6:                 X_(V0)(5)(0)#18 + X_(V1)(5)(0)#25
                                 + X_(V0)(5)(1)#84 + X_(V1)(5)(1)#85
                                 + X_(V0)(5)(2)#86 + X_(V1)(5)(2)#87
                                 + X_(V0)(5)(3)#88 + X_(V1)(5)(3)#89
                                 + X_(V0)(5)(4)#90 + X_(V1)(5)(4)#91
                                 + X_(V0)(5)(5)#92 + X_(V1)(5)(5)#93
                                 + X_(V0)(5)(6)#94 + X_(V1)(5)(6)#95
                                 + X_(V0)(5)(7)#96 + X_(V1)(5)(7)#97  = 1
 Saidas_node6#7:                 X_(V0)(6)(0)#19 + X_(V1)(6)(0)#26
                                 + X_(V0)(6)(1)#98 + X_(V1)(6)(1)#99
                                 + X_(V0)(6)(2)#100 + X_(V1)(6)(2)#101
                                 + X_(V0)(6)(3)#102 + X_(V1)(6)(3)#103
                                 + X_(V0)(6)(4)#104 + X_(V1)(6)(4)#105
                                 + X_(V0)(6)(5)#106 + X_(V1)(6)(5)#107
                                 + X_(V0)(6)(6)#108 + X_(V1)(6)(6)#109
                                 + X_(V0)(6)(7)#110 + X_(V1)(6)(7)#111  = 1
 Saidas_node7#8:                 X_(V0)(7)(0)#20 + X_(V1)(7)(0)#27
                                 + X_(V0)(7)(1)#112 + X_(V1)(7)(1)#113
                                 + X_(V0)(7)(2)#114 + X_(V1)(7)(2)#115
                                 + X_(V0)(7)(3)#116 + X_(V1)(7)(3)#117
                                 + X_(V0)(7)(4)#118 + X_(V1)(7)(4)#119
                                 + X_(V0)(7)(5)#120 + X_(V1)(7)(5)#121
                                 + X_(V0)(7)(6)#122 + X_(V1)(7)(6)#123
                                 + X_(V0)(7)(7)#124 + X_(V1)(7)(7)#125  = 1
 _Entradas_node1#9:              X_(V0)(0)(1)#0 + X_(V1)(0)(1)#7
                                 + X_(V0)(1)(1)#28 + X_(V1)(1)(1)#29
                                 + X_(V0)(2)(1)#42 + X_(V1)(2)(1)#43
                                 + X_(V0)(3)(1)#56 + X_(V1)(3)(1)#57
                                 + X_(V0)(4)(1)#70 + X_(V1)(4)(1)#71
                                 + X_(V0)(5)(1)#84 + X_(V1)(5)(1)#85
                                 + X_(V0)(6)(1)#98 + X_(V1)(6)(1)#99
                                 + X_(V0)(7)(1)#112 + X_(V1)(7)(1)#113  = 1
 _Entradas_node2#10:             X_(V0)(0)(2)#1 + X_(V1)(0)(2)#8
                                 + X_(V0)(1)(2)#30 + X_(V1)(1)(2)#31
                                 + X_(V0)(2)(2)#44 + X_(V1)(2)(2)#45
                                 + X_(V0)(3)(2)#58 + X_(V1)(3)(2)#59
                                 + X_(V0)(4)(2)#72 + X_(V1)(4)(2)#73
                                 + X_(V0)(5)(2)#86 + X_(V1)(5)(2)#87
                                 + X_(V0)(6)(2)#100 + X_(V1)(6)(2)#101
                                 + X_(V0)(7)(2)#114 + X_(V1)(7)(2)#115  = 1
 _Entradas_node3#11:             X_(V0)(0)(3)#2 + X_(V1)(0)(3)#9
                                 + X_(V0)(1)(3)#32 + X_(V1)(1)(3)#33
                                 + X_(V0)(2)(3)#46 + X_(V1)(2)(3)#47
                                 + X_(V0)(3)(3)#60 + X_(V1)(3)(3)#61
                                 + X_(V0)(4)(3)#74 + X_(V1)(4)(3)#75
                                 + X_(V0)(5)(3)#88 + X_(V1)(5)(3)#89
                                 + X_(V0)(6)(3)#102 + X_(V1)(6)(3)#103
                                 + X_(V0)(7)(3)#116 + X_(V1)(7)(3)#117  = 1
 _Entradas_node4#12:             X_(V0)(0)(4)#3 + X_(V1)(0)(4)#10
                                 + X_(V0)(1)(4)#34 + X_(V1)(1)(4)#35
                                 + X_(V0)(2)(4)#48 + X_(V1)(2)(4)#49
                                 + X_(V0)(3)(4)#62 + X_(V1)(3)(4)#63
                                 + X_(V0)(4)(4)#76 + X_(V1)(4)(4)#77
                                 + X_(V0)(5)(4)#90 + X_(V1)(5)(4)#91
                                 + X_(V0)(6)(4)#104 + X_(V1)(6)(4)#105
                                 + X_(V0)(7)(4)#118 + X_(V1)(7)(4)#119  = 1
 _Entradas_node5#13:             X_(V0)(0)(5)#4 + X_(V1)(0)(5)#11
                                 + X_(V0)(1)(5)#36 + X_(V1)(1)(5)#37
                                 + X_(V0)(2)(5)#50 + X_(V1)(2)(5)#51
                                 + X_(V0)(3)(5)#64 + X_(V1)(3)(5)#65
                                 + X_(V0)(4)(5)#78 + X_(V1)(4)(5)#79
                                 + X_(V0)(5)(5)#92 + X_(V1)(5)(5)#93
                                 + X_(V0)(6)(5)#106 + X_(V1)(6)(5)#107
                                 + X_(V0)(7)(5)#120 + X_(V1)(7)(5)#121  = 1
 _Entradas_node6#14:             X_(V0)(0)(6)#5 + X_(V1)(0)(6)#12
                                 + X_(V0)(1)(6)#38 + X_(V1)(1)(6)#39
                                 + X_(V0)(2)(6)#52 + X_(V1)(2)(6)#53
                                 + X_(V0)(3)(6)#66 + X_(V1)(3)(6)#67
                                 + X_(V0)(4)(6)#80 + X_(V1)(4)(6)#81
                                 + X_(V0)(5)(6)#94 + X_(V1)(5)(6)#95
                                 + X_(V0)(6)(6)#108 + X_(V1)(6)(6)#109
                                 + X_(V0)(7)(6)#122 + X_(V1)(7)(6)#123  = 1
 _Entradas_node7#15:             X_(V0)(0)(7)#6 + X_(V1)(0)(7)#13
                                 + X_(V0)(1)(7)#40 + X_(V1)(1)(7)#41
                                 + X_(V0)(2)(7)#54 + X_(V1)(2)(7)#55
                                 + X_(V0)(3)(7)#68 + X_(V1)(3)(7)#69
                                 + X_(V0)(4)(7)#82 + X_(V1)(4)(7)#83
                                 + X_(V0)(5)(7)#96 + X_(V1)(5)(7)#97
                                 + X_(V0)(6)(7)#110 + X_(V1)(6)(7)#111
                                 + X_(V0)(7)(7)#124 + X_(V1)(7)(7)#125  = 1
 Passar_por_0_apenas_uma_vez_viajante_g0#16: X_(V0)(0)(1)#0 + X_(V0)(0)(2)#1
                                 + X_(V0)(0)(3)#2 + X_(V0)(0)(4)#3
                                 + X_(V0)(0)(5)#4 + X_(V0)(0)(6)#5
                                 + X_(V0)(0)(7)#6 + X_(V0)(0)(0)#126  = 1
 Passar_por_0_apenas_uma_vez_viajante_g1#17: X_(V1)(0)(1)#7 + X_(V1)(0)(2)#8
                                 + X_(V1)(0)(3)#9 + X_(V1)(0)(4)#10
                                 + X_(V1)(0)(5)#11 + X_(V1)(0)(6)#12
                                 + X_(V1)(0)(7)#13 + X_(V1)(0)(0)#127  = 1
 c19#18:                         X_(V0)(1)(1)#28 + X_(V1)(1)(1)#29
                                 + X_(V0)(2)(2)#44 + X_(V1)(2)(2)#45
                                 + X_(V0)(3)(3)#60 + X_(V1)(3)(3)#61
                                 + X_(V0)(4)(4)#76 + X_(V1)(4)(4)#77
                                 + X_(V0)(5)(5)#92 + X_(V1)(5)(5)#93
                                 + X_(V0)(6)(6)#108 + X_(V1)(6)(6)#109
                                 + X_(V0)(7)(7)#124 + X_(V1)(7)(7)#125
                                 + X_(V0)(0)(0)#126 + X_(V1)(0)(0)#127 <= 0
 c20#19:                         - X_(V0)(0)(1)#0 - X_(V0)(0)(2)#1
                                 - X_(V0)(0)(3)#2 - X_(V0)(0)(4)#3
                                 - X_(V0)(0)(5)#4 - X_(V0)(0)(6)#5
                                 - X_(V0)(0)(7)#6 + X_(V0)(1)(0)#14
                                 + X_(V0)(2)(0)#15 + X_(V0)(3)(0)#16
                                 + X_(V0)(4)(0)#17 + X_(V0)(5)(0)#18
                                 + X_(V0)(6)(0)#19 + X_(V0)(7)(0)#20 <= 0
 c21#20:                         X_(V0)(0)(1)#0 - X_(V0)(1)(0)#14
                                 - X_(V0)(1)(2)#30 - X_(V0)(1)(3)#32
                                 - X_(V0)(1)(4)#34 - X_(V0)(1)(5)#36
                                 - X_(V0)(1)(6)#38 - X_(V0)(1)(7)#40
                                 + X_(V0)(2)(1)#42 + X_(V0)(3)(1)#56
                                 + X_(V0)(4)(1)#70 + X_(V0)(5)(1)#84
                                 + X_(V0)(6)(1)#98 + X_(V0)(7)(1)#112 <= 0
 c22#21:                         X_(V0)(0)(2)#1 - X_(V0)(2)(0)#15
                                 + X_(V0)(1)(2)#30 - X_(V0)(2)(1)#42
                                 - X_(V0)(2)(3)#46 - X_(V0)(2)(4)#48
                                 - X_(V0)(2)(5)#50 - X_(V0)(2)(6)#52
                                 - X_(V0)(2)(7)#54 + X_(V0)(3)(2)#58
                                 + X_(V0)(4)(2)#72 + X_(V0)(5)(2)#86
                                 + X_(V0)(6)(2)#100 + X_(V0)(7)(2)#114 <= 0
 c23#22:                         X_(V0)(0)(3)#2 - X_(V0)(3)(0)#16
                                 + X_(V0)(1)(3)#32 + X_(V0)(2)(3)#46
                                 - X_(V0)(3)(1)#56 - X_(V0)(3)(2)#58
                                 - X_(V0)(3)(4)#62 - X_(V0)(3)(5)#64
                                 - X_(V0)(3)(6)#66 - X_(V0)(3)(7)#68
                                 + X_(V0)(4)(3)#74 + X_(V0)(5)(3)#88
                                 + X_(V0)(6)(3)#102 + X_(V0)(7)(3)#116 <= 0
 c24#23:                         X_(V0)(0)(4)#3 - X_(V0)(4)(0)#17
                                 + X_(V0)(1)(4)#34 + X_(V0)(2)(4)#48
                                 + X_(V0)(3)(4)#62 - X_(V0)(4)(1)#70
                                 - X_(V0)(4)(2)#72 - X_(V0)(4)(3)#74
                                 - X_(V0)(4)(5)#78 - X_(V0)(4)(6)#80
                                 - X_(V0)(4)(7)#82 + X_(V0)(5)(4)#90
                                 + X_(V0)(6)(4)#104 + X_(V0)(7)(4)#118 <= 0
 c25#24:                         X_(V0)(0)(5)#4 - X_(V0)(5)(0)#18
                                 + X_(V0)(1)(5)#36 + X_(V0)(2)(5)#50
                                 + X_(V0)(3)(5)#64 + X_(V0)(4)(5)#78
                                 - X_(V0)(5)(1)#84 - X_(V0)(5)(2)#86
                                 - X_(V0)(5)(3)#88 - X_(V0)(5)(4)#90
                                 - X_(V0)(5)(6)#94 - X_(V0)(5)(7)#96
                                 + X_(V0)(6)(5)#106 + X_(V0)(7)(5)#120 <= 0
 c26#25:                         X_(V0)(0)(6)#5 - X_(V0)(6)(0)#19
                                 + X_(V0)(1)(6)#38 + X_(V0)(2)(6)#52
                                 + X_(V0)(3)(6)#66 + X_(V0)(4)(6)#80
                                 + X_(V0)(5)(6)#94 - X_(V0)(6)(1)#98
                                 - X_(V0)(6)(2)#100 - X_(V0)(6)(3)#102
                                 - X_(V0)(6)(4)#104 - X_(V0)(6)(5)#106
                                 - X_(V0)(6)(7)#110 + X_(V0)(7)(6)#122 <= 0
 c27#26:                         X_(V0)(0)(7)#6 - X_(V0)(7)(0)#20
                                 + X_(V0)(1)(7)#40 + X_(V0)(2)(7)#54
                                 + X_(V0)(3)(7)#68 + X_(V0)(4)(7)#82
                                 + X_(V0)(5)(7)#96 + X_(V0)(6)(7)#110
                                 - X_(V0)(7)(1)#112 - X_(V0)(7)(2)#114
                                 - X_(V0)(7)(3)#116 - X_(V0)(7)(4)#118
                                 - X_(V0)(7)(5)#120 - X_(V0)(7)(6)#122 <= 0
 c28#27:                         - X_(V1)(0)(1)#7 - X_(V1)(0)(2)#8
                                 - X_(V1)(0)(3)#9 - X_(V1)(0)(4)#10
                                 - X_(V1)(0)(5)#11 - X_(V1)(0)(6)#12
                                 - X_(V1)(0)(7)#13 + X_(V1)(1)(0)#21
                                 + X_(V1)(2)(0)#22 + X_(V1)(3)(0)#23
                                 + X_(V1)(4)(0)#24 + X_(V1)(5)(0)#25
                                 + X_(V1)(6)(0)#26 + X_(V1)(7)(0)#27 <= 0
 c29#28:                         X_(V1)(0)(1)#7 - X_(V1)(1)(0)#21
                                 - X_(V1)(1)(2)#31 - X_(V1)(1)(3)#33
                                 - X_(V1)(1)(4)#35 - X_(V1)(1)(5)#37
                                 - X_(V1)(1)(6)#39 - X_(V1)(1)(7)#41
                                 + X_(V1)(2)(1)#43 + X_(V1)(3)(1)#57
                                 + X_(V1)(4)(1)#71 + X_(V1)(5)(1)#85
                                 + X_(V1)(6)(1)#99 + X_(V1)(7)(1)#113 <= 0
 c30#29:                         X_(V1)(0)(2)#8 - X_(V1)(2)(0)#22
                                 + X_(V1)(1)(2)#31 - X_(V1)(2)(1)#43
                                 - X_(V1)(2)(3)#47 - X_(V1)(2)(4)#49
                                 - X_(V1)(2)(5)#51 - X_(V1)(2)(6)#53
                                 - X_(V1)(2)(7)#55 + X_(V1)(3)(2)#59
                                 + X_(V1)(4)(2)#73 + X_(V1)(5)(2)#87
                                 + X_(V1)(6)(2)#101 + X_(V1)(7)(2)#115 <= 0
 c31#30:                         X_(V1)(0)(3)#9 - X_(V1)(3)(0)#23
                                 + X_(V1)(1)(3)#33 + X_(V1)(2)(3)#47
                                 - X_(V1)(3)(1)#57 - X_(V1)(3)(2)#59
                                 - X_(V1)(3)(4)#63 - X_(V1)(3)(5)#65
                                 - X_(V1)(3)(6)#67 - X_(V1)(3)(7)#69
                                 + X_(V1)(4)(3)#75 + X_(V1)(5)(3)#89
                                 + X_(V1)(6)(3)#103 + X_(V1)(7)(3)#117 <= 0
 c32#31:                         X_(V1)(0)(4)#10 - X_(V1)(4)(0)#24
                                 + X_(V1)(1)(4)#35 + X_(V1)(2)(4)#49
                                 + X_(V1)(3)(4)#63 - X_(V1)(4)(1)#71
                                 - X_(V1)(4)(2)#73 - X_(V1)(4)(3)#75
                                 - X_(V1)(4)(5)#79 - X_(V1)(4)(6)#81
                                 - X_(V1)(4)(7)#83 + X_(V1)(5)(4)#91
                                 + X_(V1)(6)(4)#105 + X_(V1)(7)(4)#119 <= 0
 c33#32:                         X_(V1)(0)(5)#11 - X_(V1)(5)(0)#25
                                 + X_(V1)(1)(5)#37 + X_(V1)(2)(5)#51
                                 + X_(V1)(3)(5)#65 + X_(V1)(4)(5)#79
                                 - X_(V1)(5)(1)#85 - X_(V1)(5)(2)#87
                                 - X_(V1)(5)(3)#89 - X_(V1)(5)(4)#91
                                 - X_(V1)(5)(6)#95 - X_(V1)(5)(7)#97
                                 + X_(V1)(6)(5)#107 + X_(V1)(7)(5)#121 <= 0
 c34#33:                         X_(V1)(0)(6)#12 - X_(V1)(6)(0)#26
                                 + X_(V1)(1)(6)#39 + X_(V1)(2)(6)#53
                                 + X_(V1)(3)(6)#67 + X_(V1)(4)(6)#81
                                 + X_(V1)(5)(6)#95 - X_(V1)(6)(1)#99
                                 - X_(V1)(6)(2)#101 - X_(V1)(6)(3)#103
                                 - X_(V1)(6)(4)#105 - X_(V1)(6)(5)#107
                                 - X_(V1)(6)(7)#111 + X_(V1)(7)(6)#123 <= 0
 c35#34:                         X_(V1)(0)(7)#13 - X_(V1)(7)(0)#27
                                 + X_(V1)(1)(7)#41 + X_(V1)(2)(7)#55
                                 + X_(V1)(3)(7)#69 + X_(V1)(4)(7)#83
                                 + X_(V1)(5)(7)#97 + X_(V1)(6)(7)#111
                                 - X_(V1)(7)(1)#113 - X_(V1)(7)(2)#115
                                 - X_(V1)(7)(3)#117 - X_(V1)(7)(4)#119
                                 - X_(V1)(7)(5)#121 - X_(V1)(7)(6)#123 <= 0
 q1:   [ X_(V0)(0)(1)#0 * X_(V0)(1)(0)#14 ] <= 0
 q2:   [ X_(V1)(0)(1)#7 * X_(V1)(1)(0)#21 ] <= 0
 q3:   [ X_(V0)(0)(2)#1 * X_(V0)(2)(0)#15 ] <= 0
 q4:   [ X_(V1)(0)(2)#8 * X_(V1)(2)(0)#22 ] <= 0
 q5:   [ X_(V0)(0)(3)#2 * X_(V0)(3)(0)#16 ] <= 0
 q6:   [ X_(V1)(0)(3)#9 * X_(V1)(3)(0)#23 ] <= 0
 q7:   [ X_(V0)(0)(4)#3 * X_(V0)(4)(0)#17 ] <= 0
 q8:   [ X_(V1)(0)(4)#10 * X_(V1)(4)(0)#24 ] <= 0
 q9:   [ X_(V0)(0)(5)#4 * X_(V0)(5)(0)#18 ] <= 0
 q10:  [ X_(V1)(0)(5)#11 * X_(V1)(5)(0)#25 ] <= 0
 q11:  [ X_(V0)(0)(6)#5 * X_(V0)(6)(0)#19 ] <= 0
 q12:  [ X_(V1)(0)(6)#12 * X_(V1)(6)(0)#26 ] <= 0
 q13:  [ X_(V0)(0)(7)#6 * X_(V0)(7)(0)#20 ] <= 0
 q14:  [ X_(V1)(0)(7)#13 * X_(V1)(7)(0)#27 ] <= 0
 q15:  [ X_(V0)(1)(1)#28 ^2 ] <= 0
 q16:  [ X_(V1)(1)(1)#29 ^2 ] <= 0
 q17:  [ X_(V0)(1)(2)#30 * X_(V0)(2)(1)#42 ] <= 0
 q18:  [ X_(V1)(1)(2)#31 * X_(V1)(2)(1)#43 ] <= 0
 q19:  [ X_(V0)(1)(3)#32 * X_(V0)(3)(1)#56 ] <= 0
 q20:  [ X_(V1)(1)(3)#33 * X_(V1)(3)(1)#57 ] <= 0
 q21:  [ X_(V0)(1)(4)#34 * X_(V0)(4)(1)#70 ] <= 0
 q22:  [ X_(V1)(1)(4)#35 * X_(V1)(4)(1)#71 ] <= 0
 q23:  [ X_(V0)(1)(5)#36 * X_(V0)(5)(1)#84 ] <= 0
 q24:  [ X_(V1)(1)(5)#37 * X_(V1)(5)(1)#85 ] <= 0
 q25:  [ X_(V0)(1)(6)#38 * X_(V0)(6)(1)#98 ] <= 0
 q26:  [ X_(V1)(1)(6)#39 * X_(V1)(6)(1)#99 ] <= 0
 q27:  [ X_(V0)(1)(7)#40 * X_(V0)(7)(1)#112 ] <= 0
 q28:  [ X_(V1)(1)(7)#41 * X_(V1)(7)(1)#113 ] <= 0
 q29:  [ X_(V0)(1)(2)#30 * X_(V0)(2)(1)#42 ] <= 0
 q30:  [ X_(V1)(1)(2)#31 * X_(V1)(2)(1)#43 ] <= 0
 q31:  [ X_(V0)(2)(2)#44 ^2 ] <= 0
 q32:  [ X_(V1)(2)(2)#45 ^2 ] <= 0
 q33:  [ X_(V0)(2)(3)#46 * X_(V0)(3)(2)#58 ] <= 0
 q34:  [ X_(V1)(2)(3)#47 * X_(V1)(3)(2)#59 ] <= 0
 q35:  [ X_(V0)(2)(4)#48 * X_(V0)(4)(2)#72 ] <= 0
 q36:  [ X_(V1)(2)(4)#49 * X_(V1)(4)(2)#73 ] <= 0
 q37:  [ X_(V0)(2)(5)#50 * X_(V0)(5)(2)#86 ] <= 0
 q38:  [ X_(V1)(2)(5)#51 * X_(V1)(5)(2)#87 ] <= 0
 q39:  [ X_(V0)(2)(6)#52 * X_(V0)(6)(2)#100 ] <= 0
 q40:  [ X_(V1)(2)(6)#53 * X_(V1)(6)(2)#101 ] <= 0
 q41:  [ X_(V0)(2)(7)#54 * X_(V0)(7)(2)#114 ] <= 0
 q42:  [ X_(V1)(2)(7)#55 * X_(V1)(7)(2)#115 ] <= 0
 q43:  [ X_(V0)(1)(3)#32 * X_(V0)(3)(1)#56 ] <= 0
 q44:  [ X_(V1)(1)(3)#33 * X_(V1)(3)(1)#57 ] <= 0
 q45:  [ X_(V0)(2)(3)#46 * X_(V0)(3)(2)#58 ] <= 0
 q46:  [ X_(V1)(2)(3)#47 * X_(V1)(3)(2)#59 ] <= 0
 q47:  [ X_(V0)(3)(3)#60 ^2 ] <= 0
 q48:  [ X_(V1)(3)(3)#61 ^2 ] <= 0
 q49:  [ X_(V0)(3)(4)#62 * X_(V0)(4)(3)#74 ] <= 0
 q50:  [ X_(V1)(3)(4)#63 * X_(V1)(4)(3)#75 ] <= 0
 q51:  [ X_(V0)(3)(5)#64 * X_(V0)(5)(3)#88 ] <= 0
 q52:  [ X_(V1)(3)(5)#65 * X_(V1)(5)(3)#89 ] <= 0
 q53:  [ X_(V0)(3)(6)#66 * X_(V0)(6)(3)#102 ] <= 0
 q54:  [ X_(V1)(3)(6)#67 * X_(V1)(6)(3)#103 ] <= 0
 q55:  [ X_(V0)(3)(7)#68 * X_(V0)(7)(3)#116 ] <= 0
 q56:  [ X_(V1)(3)(7)#69 * X_(V1)(7)(3)#117 ] <= 0
 q57:  [ X_(V0)(1)(4)#34 * X_(V0)(4)(1)#70 ] <= 0
 q58:  [ X_(V1)(1)(4)#35 * X_(V1)(4)(1)#71 ] <= 0
 q59:  [ X_(V0)(2)(4)#48 * X_(V0)(4)(2)#72 ] <= 0
 q60:  [ X_(V1)(2)(4)#49 * X_(V1)(4)(2)#73 ] <= 0
 q61:  [ X_(V0)(3)(4)#62 * X_(V0)(4)(3)#74 ] <= 0
 q62:  [ X_(V1)(3)(4)#63 * X_(V1)(4)(3)#75 ] <= 0
 q63:  [ X_(V0)(4)(4)#76 ^2 ] <= 0
 q64:  [ X_(V1)(4)(4)#77 ^2 ] <= 0
 q65:  [ X_(V0)(4)(5)#78 * X_(V0)(5)(4)#90 ] <= 0
 q66:  [ X_(V1)(4)(5)#79 * X_(V1)(5)(4)#91 ] <= 0
 q67:  [ X_(V0)(4)(6)#80 * X_(V0)(6)(4)#104 ] <= 0
 q68:  [ X_(V1)(4)(6)#81 * X_(V1)(6)(4)#105 ] <= 0
 q69:  [ X_(V0)(4)(7)#82 * X_(V0)(7)(4)#118 ] <= 0
 q70:  [ X_(V1)(4)(7)#83 * X_(V1)(7)(4)#119 ] <= 0
 q71:  [ X_(V0)(1)(5)#36 * X_(V0)(5)(1)#84 ] <= 0
 q72:  [ X_(V1)(1)(5)#37 * X_(V1)(5)(1)#85 ] <= 0
 q73:  [ X_(V0)(2)(5)#50 * X_(V0)(5)(2)#86 ] <= 0
 q74:  [ X_(V1)(2)(5)#51 * X_(V1)(5)(2)#87 ] <= 0
 q75:  [ X_(V0)(3)(5)#64 * X_(V0)(5)(3)#88 ] <= 0
 q76:  [ X_(V1)(3)(5)#65 * X_(V1)(5)(3)#89 ] <= 0
 q77:  [ X_(V0)(4)(5)#78 * X_(V0)(5)(4)#90 ] <= 0
 q78:  [ X_(V1)(4)(5)#79 * X_(V1)(5)(4)#91 ] <= 0
 q79:  [ X_(V0)(5)(5)#92 ^2 ] <= 0
 q80:  [ X_(V1)(5)(5)#93 ^2 ] <= 0
 q81:  [ X_(V0)(5)(6)#94 * X_(V0)(6)(5)#106 ] <= 0
 q82:  [ X_(V1)(5)(6)#95 * X_(V1)(6)(5)#107 ] <= 0
 q83:  [ X_(V0)(5)(7)#96 * X_(V0)(7)(5)#120 ] <= 0
 q84:  [ X_(V1)(5)(7)#97 * X_(V1)(7)(5)#121 ] <= 0
 q85:  [ X_(V0)(1)(6)#38 * X_(V0)(6)(1)#98 ] <= 0
 q86:  [ X_(V1)(1)(6)#39 * X_(V1)(6)(1)#99 ] <= 0
 q87:  [ X_(V0)(2)(6)#52 * X_(V0)(6)(2)#100 ] <= 0
 q88:  [ X_(V1)(2)(6)#53 * X_(V1)(6)(2)#101 ] <= 0
 q89:  [ X_(V0)(3)(6)#66 * X_(V0)(6)(3)#102 ] <= 0
 q90:  [ X_(V1)(3)(6)#67 * X_(V1)(6)(3)#103 ] <= 0
 q91:  [ X_(V0)(4)(6)#80 * X_(V0)(6)(4)#104 ] <= 0
 q92:  [ X_(V1)(4)(6)#81 * X_(V1)(6)(4)#105 ] <= 0
 q93:  [ X_(V0)(5)(6)#94 * X_(V0)(6)(5)#106 ] <= 0
 q94:  [ X_(V1)(5)(6)#95 * X_(V1)(6)(5)#107 ] <= 0
 q95:  [ X_(V0)(6)(6)#108 ^2 ] <= 0
 q96:  [ X_(V1)(6)(6)#109 ^2 ] <= 0
 q97:  [ X_(V0)(6)(7)#110 * X_(V0)(7)(6)#122 ] <= 0
 q98:  [ X_(V1)(6)(7)#111 * X_(V1)(7)(6)#123 ] <= 0
 q99:  [ X_(V0)(1)(7)#40 * X_(V0)(7)(1)#112 ] <= 0
 q100: [ X_(V1)(1)(7)#41 * X_(V1)(7)(1)#113 ] <= 0
 q101: [ X_(V0)(2)(7)#54 * X_(V0)(7)(2)#114 ] <= 0
 q102: [ X_(V1)(2)(7)#55 * X_(V1)(7)(2)#115 ] <= 0
 q103: [ X_(V0)(3)(7)#68 * X_(V0)(7)(3)#116 ] <= 0
 q104: [ X_(V1)(3)(7)#69 * X_(V1)(7)(3)#117 ] <= 0
 q105: [ X_(V0)(4)(7)#82 * X_(V0)(7)(4)#118 ] <= 0
 q106: [ X_(V1)(4)(7)#83 * X_(V1)(7)(4)#119 ] <= 0
 q107: [ X_(V0)(5)(7)#96 * X_(V0)(7)(5)#120 ] <= 0
 q108: [ X_(V1)(5)(7)#97 * X_(V1)(7)(5)#121 ] <= 0
 q109: [ X_(V0)(6)(7)#110 * X_(V0)(7)(6)#122 ] <= 0
 q110: [ X_(V1)(6)(7)#111 * X_(V1)(7)(6)#123 ] <= 0
 q111: [ X_(V0)(7)(7)#124 ^2 ] <= 0
 q112: [ X_(V1)(7)(7)#125 ^2 ] <= 0
Bounds
 0 <= X_(V0)(0)(1)#0 <= 1
 0 <= X_(V0)(0)(2)#1 <= 1
 0 <= X_(V0)(0)(3)#2 <= 1
 0 <= X_(V0)(0)(4)#3 <= 1
 0 <= X_(V0)(0)(5)#4 <= 1
 0 <= X_(V0)(0)(6)#5 <= 1
 0 <= X_(V0)(0)(7)#6 <= 1
 0 <= X_(V1)(0)(1)#7 <= 1
 0 <= X_(V1)(0)(2)#8 <= 1
 0 <= X_(V1)(0)(3)#9 <= 1
 0 <= X_(V1)(0)(4)#10 <= 1
 0 <= X_(V1)(0)(5)#11 <= 1
 0 <= X_(V1)(0)(6)#12 <= 1
 0 <= X_(V1)(0)(7)#13 <= 1
 0 <= X_(V0)(1)(0)#14 <= 1
 0 <= X_(V0)(2)(0)#15 <= 1
 0 <= X_(V0)(3)(0)#16 <= 1
 0 <= X_(V0)(4)(0)#17 <= 1
 0 <= X_(V0)(5)(0)#18 <= 1
 0 <= X_(V0)(6)(0)#19 <= 1
 0 <= X_(V0)(7)(0)#20 <= 1
 0 <= X_(V1)(1)(0)#21 <= 1
 0 <= X_(V1)(2)(0)#22 <= 1
 0 <= X_(V1)(3)(0)#23 <= 1
 0 <= X_(V1)(4)(0)#24 <= 1
 0 <= X_(V1)(5)(0)#25 <= 1
 0 <= X_(V1)(6)(0)#26 <= 1
 0 <= X_(V1)(7)(0)#27 <= 1
 0 <= X_(V0)(1)(1)#28 <= 1
 0 <= X_(V1)(1)(1)#29 <= 1
 0 <= X_(V0)(1)(2)#30 <= 1
 0 <= X_(V1)(1)(2)#31 <= 1
 0 <= X_(V0)(1)(3)#32 <= 1
 0 <= X_(V1)(1)(3)#33 <= 1
 0 <= X_(V0)(1)(4)#34 <= 1
 0 <= X_(V1)(1)(4)#35 <= 1
 0 <= X_(V0)(1)(5)#36 <= 1
 0 <= X_(V1)(1)(5)#37 <= 1
 0 <= X_(V0)(1)(6)#38 <= 1
 0 <= X_(V1)(1)(6)#39 <= 1
 0 <= X_(V0)(1)(7)#40 <= 1
 0 <= X_(V1)(1)(7)#41 <= 1
 0 <= X_(V0)(2)(1)#42 <= 1
 0 <= X_(V1)(2)(1)#43 <= 1
 0 <= X_(V0)(2)(2)#44 <= 1
 0 <= X_(V1)(2)(2)#45 <= 1
 0 <= X_(V0)(2)(3)#46 <= 1
 0 <= X_(V1)(2)(3)#47 <= 1
 0 <= X_(V0)(2)(4)#48 <= 1
 0 <= X_(V1)(2)(4)#49 <= 1
 0 <= X_(V0)(2)(5)#50 <= 1
 0 <= X_(V1)(2)(5)#51 <= 1
 0 <= X_(V0)(2)(6)#52 <= 1
 0 <= X_(V1)(2)(6)#53 <= 1
 0 <= X_(V0)(2)(7)#54 <= 1
 0 <= X_(V1)(2)(7)#55 <= 1
 0 <= X_(V0)(3)(1)#56 <= 1
 0 <= X_(V1)(3)(1)#57 <= 1
 0 <= X_(V0)(3)(2)#58 <= 1
 0 <= X_(V1)(3)(2)#59 <= 1
 0 <= X_(V0)(3)(3)#60 <= 1
 0 <= X_(V1)(3)(3)#61 <= 1
 0 <= X_(V0)(3)(4)#62 <= 1
 0 <= X_(V1)(3)(4)#63 <= 1
 0 <= X_(V0)(3)(5)#64 <= 1
 0 <= X_(V1)(3)(5)#65 <= 1
 0 <= X_(V0)(3)(6)#66 <= 1
 0 <= X_(V1)(3)(6)#67 <= 1
 0 <= X_(V0)(3)(7)#68 <= 1
 0 <= X_(V1)(3)(7)#69 <= 1
 0 <= X_(V0)(4)(1)#70 <= 1
 0 <= X_(V1)(4)(1)#71 <= 1
 0 <= X_(V0)(4)(2)#72 <= 1
 0 <= X_(V1)(4)(2)#73 <= 1
 0 <= X_(V0)(4)(3)#74 <= 1
 0 <= X_(V1)(4)(3)#75 <= 1
 0 <= X_(V0)(4)(4)#76 <= 1
 0 <= X_(V1)(4)(4)#77 <= 1
 0 <= X_(V0)(4)(5)#78 <= 1
 0 <= X_(V1)(4)(5)#79 <= 1
 0 <= X_(V0)(4)(6)#80 <= 1
 0 <= X_(V1)(4)(6)#81 <= 1
 0 <= X_(V0)(4)(7)#82 <= 1
 0 <= X_(V1)(4)(7)#83 <= 1
 0 <= X_(V0)(5)(1)#84 <= 1
 0 <= X_(V1)(5)(1)#85 <= 1
 0 <= X_(V0)(5)(2)#86 <= 1
 0 <= X_(V1)(5)(2)#87 <= 1
 0 <= X_(V0)(5)(3)#88 <= 1
 0 <= X_(V1)(5)(3)#89 <= 1
 0 <= X_(V0)(5)(4)#90 <= 1
 0 <= X_(V1)(5)(4)#91 <= 1
 0 <= X_(V0)(5)(5)#92 <= 1
 0 <= X_(V1)(5)(5)#93 <= 1
 0 <= X_(V0)(5)(6)#94 <= 1
 0 <= X_(V1)(5)(6)#95 <= 1
 0 <= X_(V0)(5)(7)#96 <= 1
 0 <= X_(V1)(5)(7)#97 <= 1
 0 <= X_(V0)(6)(1)#98 <= 1
 0 <= X_(V1)(6)(1)#99 <= 1
 0 <= X_(V0)(6)(2)#100 <= 1
 0 <= X_(V1)(6)(2)#101 <= 1
 0 <= X_(V0)(6)(3)#102 <= 1
 0 <= X_(V1)(6)(3)#103 <= 1
 0 <= X_(V0)(6)(4)#104 <= 1
 0 <= X_(V1)(6)(4)#105 <= 1
 0 <= X_(V0)(6)(5)#106 <= 1
 0 <= X_(V1)(6)(5)#107 <= 1
 0 <= X_(V0)(6)(6)#108 <= 1
 0 <= X_(V1)(6)(6)#109 <= 1
 0 <= X_(V0)(6)(7)#110 <= 1
 0 <= X_(V1)(6)(7)#111 <= 1
 0 <= X_(V0)(7)(1)#112 <= 1
 0 <= X_(V1)(7)(1)#113 <= 1
 0 <= X_(V0)(7)(2)#114 <= 1
 0 <= X_(V1)(7)(2)#115 <= 1
 0 <= X_(V0)(7)(3)#116 <= 1
 0 <= X_(V1)(7)(3)#117 <= 1
 0 <= X_(V0)(7)(4)#118 <= 1
 0 <= X_(V1)(7)(4)#119 <= 1
 0 <= X_(V0)(7)(5)#120 <= 1
 0 <= X_(V1)(7)(5)#121 <= 1
 0 <= X_(V0)(7)(6)#122 <= 1
 0 <= X_(V1)(7)(6)#123 <= 1
 0 <= X_(V0)(7)(7)#124 <= 1
 0 <= X_(V1)(7)(7)#125 <= 1
 0 <= X_(V0)(0)(0)#126 <= 1
 0 <= X_(V1)(0)(0)#127 <= 1
Binaries
 X_(V0)(0)(1)#0  X_(V0)(0)(2)#1  X_(V0)(0)(3)#2  X_(V0)(0)(4)#3 
 X_(V0)(0)(5)#4  X_(V0)(0)(6)#5  X_(V0)(0)(7)#6  X_(V1)(0)(1)#7 
 X_(V1)(0)(2)#8  X_(V1)(0)(3)#9  X_(V1)(0)(4)#10  X_(V1)(0)(5)#11 
 X_(V1)(0)(6)#12  X_(V1)(0)(7)#13  X_(V0)(1)(0)#14  X_(V0)(2)(0)#15 
 X_(V0)(3)(0)#16  X_(V0)(4)(0)#17  X_(V0)(5)(0)#18  X_(V0)(6)(0)#19 
 X_(V0)(7)(0)#20  X_(V1)(1)(0)#21  X_(V1)(2)(0)#22  X_(V1)(3)(0)#23 
 X_(V1)(4)(0)#24  X_(V1)(5)(0)#25  X_(V1)(6)(0)#26  X_(V1)(7)(0)#27 
 X_(V0)(1)(1)#28  X_(V1)(1)(1)#29  X_(V0)(1)(2)#30  X_(V1)(1)(2)#31 
 X_(V0)(1)(3)#32  X_(V1)(1)(3)#33  X_(V0)(1)(4)#34  X_(V1)(1)(4)#35 
 X_(V0)(1)(5)#36  X_(V1)(1)(5)#37  X_(V0)(1)(6)#38  X_(V1)(1)(6)#39 
 X_(V0)(1)(7)#40  X_(V1)(1)(7)#41  X_(V0)(2)(1)#42  X_(V1)(2)(1)#43 
 X_(V0)(2)(2)#44  X_(V1)(2)(2)#45  X_(V0)(2)(3)#46  X_(V1)(2)(3)#47 
 X_(V0)(2)(4)#48  X_(V1)(2)(4)#49  X_(V0)(2)(5)#50  X_(V1)(2)(5)#51 
 X_(V0)(2)(6)#52  X_(V1)(2)(6)#53  X_(V0)(2)(7)#54  X_(V1)(2)(7)#55 
 X_(V0)(3)(1)#56  X_(V1)(3)(1)#57  X_(V0)(3)(2)#58  X_(V1)(3)(2)#59 
 X_(V0)(3)(3)#60  X_(V1)(3)(3)#61  X_(V0)(3)(4)#62  X_(V1)(3)(4)#63 
 X_(V0)(3)(5)#64  X_(V1)(3)(5)#65  X_(V0)(3)(6)#66  X_(V1)(3)(6)#67 
 X_(V0)(3)(7)#68  X_(V1)(3)(7)#69  X_(V0)(4)(1)#70  X_(V1)(4)(1)#71 
 X_(V0)(4)(2)#72  X_(V1)(4)(2)#73  X_(V0)(4)(3)#74  X_(V1)(4)(3)#75 
 X_(V0)(4)(4)#76  X_(V1)(4)(4)#77  X_(V0)(4)(5)#78  X_(V1)(4)(5)#79 
 X_(V0)(4)(6)#80  X_(V1)(4)(6)#81  X_(V0)(4)(7)#82  X_(V1)(4)(7)#83 
 X_(V0)(5)(1)#84  X_(V1)(5)(1)#85  X_(V0)(5)(2)#86  X_(V1)(5)(2)#87 
 X_(V0)(5)(3)#88  X_(V1)(5)(3)#89  X_(V0)(5)(4)#90  X_(V1)(5)(4)#91 
 X_(V0)(5)(5)#92  X_(V1)(5)(5)#93  X_(V0)(5)(6)#94  X_(V1)(5)(6)#95 
 X_(V0)(5)(7)#96  X_(V1)(5)(7)#97  X_(V0)(6)(1)#98  X_(V1)(6)(1)#99 
 X_(V0)(6)(2)#100  X_(V1)(6)(2)#101  X_(V0)(6)(3)#102  X_(V1)(6)(3)#103 
 X_(V0)(6)(4)#104  X_(V1)(6)(4)#105  X_(V0)(6)(5)#106  X_(V1)(6)(5)#107 
 X_(V0)(6)(6)#108  X_(V1)(6)(6)#109  X_(V0)(6)(7)#110  X_(V1)(6)(7)#111 
 X_(V0)(7)(1)#112  X_(V1)(7)(1)#113  X_(V0)(7)(2)#114  X_(V1)(7)(2)#115 
 X_(V0)(7)(3)#116  X_(V1)(7)(3)#117  X_(V0)(7)(4)#118  X_(V1)(7)(4)#119 
 X_(V0)(7)(5)#120  X_(V1)(7)(5)#121  X_(V0)(7)(6)#122  X_(V1)(7)(6)#123 
 X_(V0)(7)(7)#124  X_(V1)(7)(7)#125  X_(V0)(0)(0)#126  X_(V1)(0)(0)#127 
End
